c 
p cnf 126 209
17 21 22 0
17 21 -22 0
17 -21 22 0
17 -21 -22 0
-16 23 24 0
-16 23 -24 0
-16 -23 24 0
-16 -23 -24 0
1 -4 25 0
-25 10 17 0
4 13 26 0
-26 17 2 0
19 4 27 0
-27 -7 -2 0
17 5 28 0
17 5 -28 0
7 29 30 0
7 29 -30 0
7 -29 30 0
7 -29 -30 0
7 1 31 0
-31 -16 32 0
-32 13 -3 0
-17 16 33 0
-33 10 -13 0
3 34 35 0
3 34 -35 0
3 -34 35 0
3 -34 -35 0
14 36 37 0
14 36 -37 0
14 -36 37 0
14 -36 -37 0
3 15 38 0
3 15 -38 0
9 -2 39 0
-39 -17 40 0
-40 -7 -19 0
-20 11 -16 0
-7 -12 -8 0
-4 -17 41 0
-4 -17 -41 0
12 5 11 0
18 42 43 0
18 42 -43 0
18 -42 43 0
18 -42 -43 0
-12 7 44 0
-12 7 -44 0
-16 9 45 0
-45 1 -6 0
1 -16 46 0
-46 20 47 0
-47 -19 -2 0
-12 15 -18 0
-8 48 49 0
-8 48 -49 0
-8 -48 49 0
-8 -48 -49 0
-16 13 50 0
-50 -18 51 0
-51 -8 -6 0
-11 17 52 0
-11 17 -52 0
12 53 54 0
12 53 -54 0
12 -53 54 0
12 -53 -54 0
4 55 56 0
4 55 -56 0
4 -55 56 0
4 -55 -56 0
12 3 57 0
-57 19 58 0
-58 20 18 0
18 20 59 0
18 20 -59 0
16 60 61 0
16 60 -61 0
16 -60 61 0
16 -60 -61 0
9 62 63 0
9 62 -63 0
9 -62 63 0
9 -62 -63 0
-17 12 4 0
14 64 65 0
14 64 -65 0
14 -64 65 0
14 -64 -65 0
5 14 66 0
5 14 -66 0
7 1 67 0
7 1 -67 0
-2 -3 68 0
-68 -10 13 0
-4 -5 69 0
-4 -5 -69 0
-11 70 71 0
-11 70 -71 0
-11 -70 71 0
-11 -70 -71 0
4 6 72 0
-72 -15 73 0
-73 -10 12 0
-20 74 75 0
-20 74 -75 0
-20 -74 75 0
-20 -74 -75 0
3 76 77 0
3 76 -77 0
3 -76 77 0
3 -76 -77 0
13 17 78 0
-78 1 79 0
-79 -12 16 0
-17 12 80 0
-17 12 -80 0
-1 -13 -15 0
18 9 81 0
-81 -15 -13 0
-17 82 83 0
-17 82 -83 0
-17 -82 83 0
-17 -82 -83 0
-15 -16 84 0
-84 19 -4 0
-17 -3 18 0
16 -19 85 0
16 -19 -85 0
5 15 86 0
-86 18 -4 0
19 87 88 0
19 87 -88 0
19 -87 88 0
19 -87 -88 0
7 89 90 0
7 89 -90 0
7 -89 90 0
7 -89 -90 0
-6 -13 91 0
-91 20 -5 0
-17 -3 92 0
-92 11 -5 0
6 7 93 0
6 7 -93 0
2 8 94 0
-94 -15 95 0
-95 12 9 0
-9 19 96 0
-96 20 11 0
-14 1 97 0
-14 1 -97 0
19 98 99 0
19 98 -99 0
19 -98 99 0
19 -98 -99 0
-3 -18 100 0
-100 7 -19 0
-5 3 101 0
-101 -15 102 0
-102 12 -7 0
19 4 103 0
-103 -18 -1 0
-15 9 104 0
-104 -16 105 0
-105 1 -4 0
4 15 106 0
-106 17 -10 0
-6 -10 107 0
-107 18 108 0
-108 -1 8 0
18 3 109 0
-109 -17 110 0
-110 16 -19 0
-19 -11 111 0
-111 4 112 0
-112 7 -3 0
17 13 -5 0
1 -20 113 0
1 -20 -113 0
-4 114 115 0
-4 114 -115 0
-4 -114 115 0
-4 -114 -115 0
-13 12 -20 0
4 18 116 0
-116 -9 7 0
8 19 117 0
-117 -5 -9 0
-16 -17 118 0
-118 11 -6 0
-17 -19 119 0
-119 -12 7 0
-2 -12 120 0
-120 17 -18 0
-14 121 122 0
-14 121 -122 0
-14 -121 122 0
-14 -121 -122 0
-10 19 3 0
-13 123 124 0
-13 123 -124 0
-13 -123 124 0
-13 -123 -124 0
-7 125 126 0
-7 125 -126 0
-7 -125 126 0
-7 -125 -126 0
